
******************************************************************************
This program contains Ipopt, a library for large-scale nonlinear optimization.
 Ipopt is released as open source code under the Eclipse Public License (EPL).
         For more information visit http://projects.coin-or.org/Ipopt
******************************************************************************

This is Ipopt version 3.12.6, running with linear solver ma57.

Number of nonzeros in equality constraint Jacobian...:        0
Number of nonzeros in inequality constraint Jacobian.:        0
Number of nonzeros in Lagrangian Hessian.............:     5050

Total number of variables............................:      100
                     variables with only lower bounds:        0
                variables with lower and upper bounds:        0
                     variables with only upper bounds:        0
Total number of equality constraints.................:        0
Total number of inequality constraints...............:        0
        inequality constraints with only lower bounds:        0
   inequality constraints with lower and upper bounds:        0
        inequality constraints with only upper bounds:        0

iter    objective    inf_pr   inf_du lg(mu)  ||d||  lg(rg) alpha_du alpha_pr  ls
   0 -5.6481400e+01 0.00e+00 2.29e+01  -1.0 0.00e+00    -  0.00e+00 0.00e+00   0
   1 -5.6984741e+01 0.00e+00 2.31e+01  -1.0 2.31e-03   4.0 1.00e+00 1.00e+00f  1
   2 -5.8547216e+01 0.00e+00 2.38e+01  -1.0 7.13e-03   3.5 1.00e+00 1.00e+00f  1
   3 -6.3761752e+01 0.00e+00 2.58e+01  -1.0 2.32e-02   3.0 1.00e+00 1.00e+00f  1
   4 -8.6268510e+01 0.00e+00 3.38e+01  -1.0 9.16e-02   2.6 1.00e+00 1.00e+00f  1
   5 -3.5256815e+02 0.00e+00 4.29e+01  -1.0 1.11e+00   2.1 1.00e+00 1.00e+00f  1
   6 -4.2583643e+02 0.00e+00 4.39e+01  -1.0 1.41e-01   2.5 1.00e+00 1.00e+00f  1
   7 -7.8170801e+02 0.00e+00 4.86e+01  -1.0 7.41e-01   2.0 1.00e+00 1.00e+00f  1
   8 -8.9942405e+02 0.00e+00 5.28e+01  -1.0 1.91e-01   2.5 1.00e+00 1.00e+00f  1
   9 -1.1847477e+03 0.00e+00 7.84e+01  -1.0 1.82e+00   2.0 1.00e+00 1.00e+00f  1
iter    objective    inf_pr   inf_du lg(mu)  ||d||  lg(rg) alpha_du alpha_pr  ls
  10 -1.3698666e+03 0.00e+00 8.43e+01  -1.0 5.86e-01   2.4 1.00e+00 1.00e+00f  1
  11 -1.4238591e+03 0.00e+00 8.77e+01  -1.0 1.38e-01   2.8 1.00e+00 1.00e+00f  1
  12 -1.5561328e+03 0.00e+00 5.64e+01  -1.0 3.24e-01   2.4 1.00e+00 1.00e+00f  1
  13 -1.5895081e+03 0.00e+00 5.74e+01  -1.0 9.66e-02   2.8 1.00e+00 1.00e+00f  1
  14 -1.6862177e+03 0.00e+00 5.12e+01  -1.0 3.64e-01   2.3 1.00e+00 1.00e+00f  1
  15 -1.7114988e+03 0.00e+00 5.31e+01  -1.0 1.01e-01   2.7 1.00e+00 1.00e+00f  1
  16 -1.7872122e+03 0.00e+00 4.87e+01  -1.0 4.19e-01   2.3 1.00e+00 1.00e+00f  1
  17 -1.8045891e+03 0.00e+00 4.62e+01  -1.0 9.77e-02   2.7 1.00e+00 1.00e+00f  1
  18 -1.8593779e+03 0.00e+00 3.88e+01  -1.0 4.51e-01   2.2 1.00e+00 1.00e+00f  1
  19 -1.8699428e+03 0.00e+00 4.18e+01  -1.0 9.94e-02   2.6 1.00e+00 1.00e+00f  1
iter    objective    inf_pr   inf_du lg(mu)  ||d||  lg(rg) alpha_du alpha_pr  ls
  20 -1.9070420e+03 0.00e+00 4.31e+01  -1.0 4.71e-01   2.2 1.00e+00 1.00e+00f  1
  21 -1.9139531e+03 0.00e+00 3.83e+01  -1.0 1.08e-01   2.6 1.00e+00 1.00e+00f  1
  22 -1.9420626e+03 0.00e+00 1.32e+01  -1.0 6.53e-01   2.1 1.00e+00 1.00e+00f  1
  23 -1.9436896e+03 0.00e+00 1.35e+01  -1.0 3.88e-02   2.5 1.00e+00 1.00e+00f  1
  24 -1.9608737e+03 0.00e+00 3.51e+01  -1.0 5.14e-01   2.1 1.00e+00 1.00e+00f  1
  25 -1.9640780e+03 0.00e+00 2.57e+01  -1.0 9.28e-02   2.5 1.00e+00 1.00e+00f  1
  26 -1.9665039e+03 0.00e+00 8.22e+00  -1.0 1.12e-01   2.0 1.00e+00 1.00e+00f  1
  27 -1.9668027e+03 0.00e+00 6.26e+00  -1.0 2.28e-02   2.4 1.00e+00 1.00e+00f  1
  28 -1.9738642e+03 0.00e+00 3.47e+01  -1.0 3.34e-01   2.0 1.00e+00 1.00e+00f  1
  29 -1.9810322e+03 0.00e+00 3.70e+01  -1.0 1.90e-01   2.4 1.00e+00 1.00e+00f  1
iter    objective    inf_pr   inf_du lg(mu)  ||d||  lg(rg) alpha_du alpha_pr  ls
  30 -1.9814120e+03 0.00e+00 3.32e+01  -1.0 9.18e-01    -  1.00e+00 5.00e-01f  2
  31 -1.9877268e+03 0.00e+00 3.76e+00  -1.0 2.39e-01    -  1.00e+00 1.00e+00f  1
  32 -1.9878674e+03 0.00e+00 7.60e-01  -1.0 5.77e-02    -  1.00e+00 1.00e+00f  1
  33 -1.9878749e+03 0.00e+00 7.94e-02  -1.7 1.83e-02    -  1.00e+00 1.00e+00f  1
  34 -1.9878750e+03 0.00e+00 1.40e-03  -2.5 2.41e-03    -  1.00e+00 1.00e+00f  1
  35 -1.9878750e+03 0.00e+00 4.64e-07  -5.7 4.40e-05    -  1.00e+00 1.00e+00f  1
  36 -1.9878750e+03 0.00e+00 7.39e-14  -8.6 1.46e-08    -  1.00e+00 1.00e+00f  1

Number of Iterations....: 36

                                   (scaled)                 (unscaled)
Objective...............:  -1.9878750000000000e+03   -1.9878750000000000e+03
Dual infeasibility......:   7.3940853440035438e-14    7.3940853440035438e-14
Constraint violation....:   0.0000000000000000e+00    0.0000000000000000e+00
Complementarity.........:   0.0000000000000000e+00    0.0000000000000000e+00
Overall NLP error.......:   7.3940853440035438e-14    7.3940853440035438e-14


Number of objective function evaluations             = 42
Number of objective gradient evaluations             = 37
Number of equality constraint evaluations            = 0
Number of inequality constraint evaluations          = 0
Number of equality constraint Jacobian evaluations   = 0
Number of inequality constraint Jacobian evaluations = 0
Number of Lagrangian Hessian evaluations             = 36
Total CPU secs in IPOPT (w/o function evaluations)   =      0.047
Total CPU secs in NLP function evaluations           =      0.317

EXIT: Optimal Solution Found.

 ** SUBROUTINE CUTEST_csetup: Warning. The problem has no general constraints. 
 ** Other tools may be preferable ** 

************************ CUTEst statistics ************************


 Package used            :  IPOPT
 Problem                 :  SENSORS   
 # variables             =             100
 # constraints           =               0
 # objective functions   =        0.8000000E+02
 # objective gradients   =        0.3800000E+02
 # objective Hessians    =        0.3700000E+02
 # Hessian-vector prdct  =        0.0000000E+00
 # constraints functions =        0.0000000E+00
 # constraints gradients =        0.0000000E+00
 # constraints Hessians  =        0.0000000E+00
 Exit code               =               0
 Final f                 =  -0.1987875E+04
 Set up time             =            0.14 seconds
 Solve time              =            0.49 seconds


******************************************************************

System Time =       0.3610000014 s.
